WARNING: for repeatability, setting FPU to use double precision
Reading from standard input... Use '--help' for help.
============================[ Problem Statistics ]=============================
|                                                                             |
|  Number of variables:          4096                                         |
|  Number of clauses:           33251                                         |
|  Parse time:                   0.01 s                                       |
|  Eliminated clauses:           0.01 Mb                                      |
|  Simplification time:          0.01 s                                       |
|                                                                             |
LBD Based Clause Deletion : 1
Rapid Deletion : 1
Almost Conflict : 1
Anti Exploration : 1
============================[ Search Statistics ]==============================
| Conflicts |          ORIGINAL         |          LEARNT          | Progress |
|           |    Vars  Clauses Literals |    Limit  Clauses Lit/Cl |          |
===============================================================================
|       100 |     743     6013    16680 |     2000      100     55 | 78.076 % |
===============================================================================
restarts              : 2
conflicts             : 109            (6144 /sec)
decisions             : 363            (0.00 % random) (20462 /sec)
propagations          : 10728          (604735 /sec)
conflict literals     : 5642           (8.04 % deleted)
actual reward         : 0.256921
Memory used           : 9.00 MB
CPU time              : 0.01774 s

SATISFIABLE
